Version identifier: 22.1.0.0 | 2022-03-09 | 1a383f8ce
CPXPARAM_Threads                                 1
CPXPARAM_MIP_Strategy_VariableSelect             3
CPXPARAM_TimeLimit                               599.99998232999997
1 of 1 MIP starts provided solutions.
MIP start 'm1' defined initial solution with objective 5.0000.
Tried aggregator 1 time.
MIP Presolve eliminated 11 rows and 0 columns.
MIP Presolve modified 175 coefficients.
Reduced MIP has 1815 rows, 7800 columns, and 125454 nonzeros.
Reduced MIP has 7800 binaries, 0 generals, 0 SOSs, and 0 indicators.
Presolve time = 0.16 sec. (227.19 ticks)
Probing time = 0.03 sec. (24.92 ticks)
Tried aggregator 1 time.
Detecting symmetries...
MIP Presolve modified 12 coefficients.
Reduced MIP has 1815 rows, 7800 columns, and 125754 nonzeros.
Reduced MIP has 7800 binaries, 0 generals, 0 SOSs, and 0 indicators.
Presolve time = 0.12 sec. (171.91 ticks)
Probing time = 0.03 sec. (24.94 ticks)
Clique table members: 984.
MIP emphasis: balance optimality and feasibility.
MIP search method: dynamic search.
Parallel mode: none, using 1 thread.
Root relaxation solution time = 6.75 sec. (7999.42 ticks)

        Nodes                                         Cuts/
   Node  Left     Objective  IInf  Best Integer    Best Bound    ItCnt     Gap

*     0+    0                            5.0000    45150.0000              --- 
      0     0      300.0000  1088        5.0000      300.0000    17553     --- 
      0     0      300.0000   336        5.0000      Cuts: 18    41379     --- 
      0     0      300.0000  1296        5.0000       Cuts: 7    73319     --- 
*     0+    0                          272.0000      300.0000            10.29%
      0     0      300.0000   184      272.0000      Cuts: 24    96510   10.29%
*     0+    0                          278.0000      300.0000             7.91%
      0     0        cutoff            278.0000      300.0000    96510    7.91%
      0     0      300.0000  1346      278.0000      Cuts: 19   124224    7.91%
Heuristic still looking.
*     0+    0                          289.0000      300.0000             3.81%
*     0+    0                          291.0000      300.0000             3.09%
      0     0        cutoff            291.0000      300.0000   124224    3.09%
Detecting symmetries...
      0     2      300.0000   217      291.0000      300.0000   124224    3.09%
Elapsed time = 134.31 sec. (157419.09 ticks, tree = 0.01 MB, solutions = 5)
      1     3      300.0000   136      291.0000      300.0000   126682    3.09%
      2     4      300.0000   442      291.0000      300.0000   132330    3.09%
      3     5      300.0000   136      291.0000      300.0000   136182    3.09%
      4     6      300.0000   424      291.0000      300.0000   141323    3.09%
      5     7      300.0000   139      291.0000      300.0000   142215    3.09%
      6     8      300.0000   160      291.0000      300.0000   160321    3.09%
      7     9      300.0000   335      291.0000      300.0000   176143    3.09%
      8    10      300.0000   149      291.0000      300.0000   177643    3.09%
      9    11      300.0000   430      291.0000      300.0000   190066    3.09%
     11    13      300.0000   236      291.0000      300.0000   207244    3.09%
Elapsed time = 164.14 sec. (190903.11 ticks, tree = 0.06 MB, solutions = 5)
     12    14      300.0000   141      291.0000      300.0000   210040    3.09%
     13    15      300.0000   984      291.0000      300.0000   224806    3.09%
     15    17      300.0000   380      291.0000      300.0000   237607    3.09%
     17    19      300.0000   160      291.0000      300.0000   239280    3.09%
     18    20      300.0000   206      291.0000      300.0000   243943    3.09%
     20    22      300.0000   298      291.0000      300.0000   251101    3.09%
     21    23      300.0000   153      291.0000      300.0000   258602    3.09%
     22    24      300.0000   465      291.0000      300.0000   262479    3.09%
     23    25      300.0000   169      291.0000      300.0000   266109    3.09%
     24    26      300.0000   439      291.0000      300.0000   271431    3.09%
Elapsed time = 191.75 sec. (221201.32 ticks, tree = 0.17 MB, solutions = 5)
     25    27      300.0000   182      291.0000      300.0000   279147    3.09%
     26    28      300.0000   224      291.0000      300.0000   284361    3.09%
     28    30      300.0000   264      291.0000      300.0000   290925    3.09%
     30    32      300.0000   186      291.0000      300.0000   295684    3.09%
     31    33      300.0000   188      291.0000      300.0000   305713    3.09%
     32    34      300.0000   438      291.0000      300.0000   311850    3.09%
     34    36      300.0000   417      291.0000      300.0000   317840    3.09%
     36    38      300.0000   256      291.0000      300.0000   325949    3.09%
     38    40      300.0000   292      291.0000      300.0000   331595    3.09%
     41    43      300.0000   180      291.0000      300.0000   332950    3.09%
Elapsed time = 216.15 sec. (247018.84 ticks, tree = 0.23 MB, solutions = 5)
     43    45      300.0000   180      291.0000      300.0000   339651    3.09%
     46    48      300.0000   172      291.0000      300.0000   343839    3.09%
     49    51      300.0000   179      291.0000      300.0000   348291    3.09%
     51    53      300.0000   182      291.0000      300.0000   351762    3.09%
     53    55      300.0000   294      291.0000      300.0000   356785    3.09%
     55    57      300.0000   228      291.0000      300.0000   361988    3.09%
     58    60      300.0000   160      291.0000      300.0000   367256    3.09%
     60    62      300.0000   126      291.0000      300.0000   368949    3.09%
     62    64      300.0000   189      291.0000      300.0000   374216    3.09%
     64    66      300.0000   233      291.0000      300.0000   379043    3.09%
Elapsed time = 229.73 sec. (260817.83 ticks, tree = 0.30 MB, solutions = 5)
     66    68      300.0000   224      291.0000      300.0000   384115    3.09%
     67    69      300.0000   125      291.0000      300.0000   388021    3.09%
     69    71      300.0000   222      291.0000      300.0000   393082    3.09%
     70    72      300.0000   173      291.0000      300.0000   395731    3.09%
     71    73      300.0000   163      291.0000      300.0000   399240    3.09%
     73    75      300.0000   207      291.0000      300.0000   406996    3.09%
     75    77      300.0000   106      291.0000      300.0000   410019    3.09%
     76    78      300.0000   201      291.0000      300.0000   416089    3.09%
     78    80      300.0000   115      291.0000      300.0000   418605    3.09%
     80    82      300.0000   138      291.0000      300.0000   422808    3.09%
Elapsed time = 243.38 sec. (275418.79 ticks, tree = 0.35 MB, solutions = 5)
     81    83      300.0000   251      291.0000      300.0000   426108    3.09%
     82    84      300.0000   132      291.0000      300.0000   429651    3.09%
     84    86      300.0000   179      291.0000      300.0000   434981    3.09%
     86    88      300.0000   157      291.0000      300.0000   441952    3.09%
     88    90      300.0000   215      291.0000      300.0000   446909    3.09%
     91    93      300.0000   130      291.0000      300.0000   448634    3.09%
     92    94      300.0000   221      291.0000      300.0000   454494    3.09%
     94    96      300.0000   167      291.0000      300.0000   458138    3.09%
     96    98      300.0000   152      291.0000      300.0000   462176    3.09%
     98   100      300.0000   224      291.0000      300.0000   476721    3.09%
Elapsed time = 259.71 sec. (292929.11 ticks, tree = 0.41 MB, solutions = 5)
    100   102      300.0000   283      291.0000      300.0000   481293    3.09%
    101   103      300.0000   245      291.0000      300.0000   485986    3.09%
    102   104      300.0000   223      291.0000      300.0000   488982    3.09%
    103   105      300.0000   315      291.0000      300.0000   495738    3.09%
    104   106      300.0000   769      291.0000      300.0000   511106    3.09%
    105   107      300.0000   273      291.0000      300.0000   520700    3.09%
    106   108      300.0000   464      291.0000      300.0000   524973    3.09%
    107   109      300.0000   247      291.0000      300.0000   528338    3.09%
    108   110      300.0000   252      291.0000      300.0000   531101    3.09%
    110   112      300.0000   430      291.0000      300.0000   550442    3.09%
Elapsed time = 278.49 sec. (312053.40 ticks, tree = 0.45 MB, solutions = 5)
    112   114      300.0000   630      291.0000      300.0000   566287    3.09%
    114   116      300.0000   614      291.0000      300.0000   583579    3.09%
    116   118      300.0000   510      291.0000      300.0000   591243    3.09%
    117   119      300.0000   640      291.0000      300.0000   600734    3.09%
    120   122      300.0000   559      291.0000      300.0000   608541    3.09%
    121   123      300.0000   574      291.0000      300.0000   619625    3.09%
    123   125      300.0000   580      291.0000      300.0000   627789    3.09%
    125   127      300.0000   565      291.0000      300.0000   633459    3.09%
    128   130      300.0000   497      291.0000      300.0000   634494    3.09%
    129   131      300.0000   591      291.0000      300.0000   648660    3.09%
Elapsed time = 292.46 sec. (324530.78 ticks, tree = 0.51 MB, solutions = 5)
    131   133      300.0000   601      291.0000      300.0000   658543    3.09%
    133   135      300.0000   522      291.0000      300.0000   685645    3.09%
    135   137      300.0000   420      291.0000      300.0000   689036    3.09%
    136   138      300.0000   385      291.0000      300.0000   693777    3.09%
    138   140      300.0000   392      291.0000      300.0000   697047    3.09%
    140   142      300.0000   391      291.0000      300.0000   697432    3.09%
    142   144      300.0000   396      291.0000      300.0000   703011    3.09%
    144   146      300.0000   359      291.0000      300.0000   711180    3.09%
    146   148      300.0000   374      291.0000      300.0000   715796    3.09%
    149   151      300.0000   330      291.0000      300.0000   717885    3.09%
Elapsed time = 310.30 sec. (341910.09 ticks, tree = 0.60 MB, solutions = 5)
    151   153      300.0000   335      291.0000      300.0000   723053    3.09%
    154   156      300.0000   284      291.0000      300.0000   725361    3.09%
    156   158      300.0000   321      291.0000      300.0000   732672    3.09%
    158   160      300.0000   435      291.0000      300.0000   739664    3.09%
    160   162      300.0000   332      291.0000      300.0000   750448    3.09%
    162   164      300.0000   291      291.0000      300.0000   755181    3.09%
    165   167      300.0000   262      291.0000      300.0000   765637    3.09%
    167   169      300.0000   183      291.0000      300.0000   771245    3.09%
    169   171      300.0000   189      291.0000      300.0000   780606    3.09%
    175   177      300.0000   180      291.0000      300.0000   797879    3.09%
Elapsed time = 329.84 sec. (361166.36 ticks, tree = 0.69 MB, solutions = 5)
    180   182      300.0000   153      291.0000      300.0000   807137    3.09%
    185   187      300.0000   205      291.0000      300.0000   827395    3.09%
    190   192      300.0000   158      291.0000      300.0000   849958    3.09%
    193   195      300.0000   169      291.0000      300.0000   871127    3.09%
    196   198      300.0000   282      291.0000      300.0000   883368    3.09%
    201   202      299.6013   400      291.0000      300.0000   903327    3.09%
    208   208      300.0000   169      291.0000      300.0000   926662    3.09%
    214   214      300.0000   172      291.0000      300.0000   948324    3.09%
    220   220      300.0000   132      291.0000      300.0000   970041    3.09%
    226   224      299.6316   402      291.0000      300.0000   996146    3.09%
Elapsed time = 374.61 sec. (405555.06 ticks, tree = 1.20 MB, solutions = 5)
    230   226      299.0000   329      291.0000      300.0000  1020713    3.09%
    234   230      300.0000   198      291.0000      300.0000  1041034    3.09%
    238   234      300.0000   197      291.0000      300.0000  1066000    3.09%
    246   240      299.4632   522      291.0000      300.0000  1096811    3.09%
    254   248      300.0000   225      291.0000      300.0000  1123242    3.09%
    261   253      300.0000   223      291.0000      300.0000  1156781    3.09%
    267   259      300.0000   202      291.0000      300.0000  1186020    3.09%
    275   265      299.4931   388      291.0000      300.0000  1218660    3.09%
    280   269      300.0000   220      291.0000      300.0000  1247673    3.09%
    287   274      300.0000   194      291.0000      300.0000  1278295    3.09%
Elapsed time = 419.59 sec. (446505.79 ticks, tree = 2.08 MB, solutions = 5)
    294   277      299.0000   344      291.0000      300.0000  1315752    3.09%
    300   280      299.0000   302      291.0000      300.0000  1352676    3.09%
    308   284      299.0000   416      291.0000      300.0000  1391697    3.09%
    317   292      298.8717   346      291.0000      300.0000  1428864    3.09%
    328   301      299.0000   284      291.0000      300.0000  1455891    3.09%
    340   310      298.0000   278      291.0000      300.0000  1497255    3.09%
    351   318      299.0000   282      291.0000      300.0000  1532106    3.09%
    361   325      299.0000   281      291.0000      300.0000  1570941    3.09%
    373   331      297.5459   387      291.0000      300.0000  1608727    3.09%
    385   340      298.0000   292      291.0000      300.0000  1639258    3.09%
Elapsed time = 466.81 sec. (487179.22 ticks, tree = 3.22 MB, solutions = 5)
    400   352      297.0000   314      291.0000      300.0000  1655846    3.09%
    412   361      297.0000   342      291.0000      300.0000  1684534    3.09%
    424   370      296.0000   359      291.0000      300.0000  1715522    3.09%
    437   378      296.5517   342      291.0000      300.0000  1745667    3.09%
    450   386      297.0000   315      291.0000      300.0000  1773758    3.09%
    463   392      295.9397   429      291.0000      300.0000  1811857    3.09%
    476   399      297.0000   337      291.0000      300.0000  1846199    3.09%
    491   408      297.0000   371      291.0000      300.0000  1868713    3.09%
    507   416      296.0000   371      291.0000      300.0000  1892667    3.09%
    521   423      296.0000   370      291.0000      300.0000  1917647    3.09%
Elapsed time = 512.12 sec. (527496.86 ticks, tree = 4.69 MB, solutions = 5)
    538   432      295.3155   403      291.0000      300.0000  1948122    3.09%
    556   440      295.0000   352      291.0000      300.0000  1975955    3.09%
    577   448      295.0000   368      291.0000      300.0000  1995930    3.09%
    601   453      294.0000   350      291.0000      300.0000  2019035    3.09%
    609   453      300.0000   276      291.0000      300.0000  2030472    3.09%
    617   461      300.0000   273      291.0000      300.0000  2043519    3.09%
    625   469      300.0000   175      291.0000      300.0000  2058080    3.09%
    630   474      300.0000   337      291.0000      300.0000  2076029    3.09%
    636   480      300.0000   167      291.0000      300.0000  2094679    3.09%
    641   485      300.0000   241      291.0000      300.0000  2112164    3.09%
Elapsed time = 554.41 sec. (568736.88 ticks, tree = 5.76 MB, solutions = 5)
    646   490      300.0000   249      291.0000      300.0000  2130777    3.09%
    652   496      300.0000   343      291.0000      300.0000  2147971    3.09%
    659   503      300.0000   260      291.0000      300.0000  2168523    3.09%
    666   510      300.0000   296      291.0000      300.0000  2200189    3.09%
    676   520      300.0000   196      291.0000      300.0000  2215191    3.09%
    680   524      300.0000   179      291.0000      300.0000  2220701    3.09%
    685   529      300.0000   242      291.0000      300.0000  2245569    3.09%
    693   537      300.0000   186      291.0000      300.0000  2267915    3.09%

Clique cuts applied:  31
Zero-half cuts applied:  9
Lift and project cuts applied:  1

Root node processing (before b&c):
  Real time             =  134.10 sec. (157236.21 ticks)
Sequential b&c:
  Real time             =  465.91 sec. (456460.29 ticks)
                          ------------
Total (root+branch&cut) =  600.00 sec. (613696.51 ticks)
Primal:	291
Dual:	300
Status:	Feasible
Time:	600.03
Sequence:
	9
	1
	24
	21
	10
	15
	23
	2
	9
	6
	24
	21
	17
	11
	19
	18
	7
	11
	8
	14
	3
	0
	19
	12
	8
	12
	19
	0
	3
	12
	8
	14
	19
	18
	3
	0
	3
	0
	3
	0
	3
	18
	19
	0
	3
	18
	3
	21
	16
	21
	23
	22
	20
	5
	16
	5
	24
	21
	23
	2
	23
	1
	0
	4
	13
	8
	0
	4
	13
	8
	14
	17
	13
	3
	18
	7
	13
	8
	12
	17
	13
	19
	18
	4
	1
	16
	2
	9
	1
	16
	5
	10
	15
	23
	2
	9
	6
	24
	21
	9
	15
	20
	22
	10
	1
	24
	21
	10
	15
	11
	4
	0
	19
	11
	17
	14
	8
	13
	4
	0
	1
	24
	21
	14
	8
	11
	4
	0
	19
	11
	17
	0
	19
	11
	17
	14
	8
	13
	4
	18
	6
	23
	2
	9
	1
	16
	5
	10
	15
	19
	12
	17
	13
	8
	14
	17
	11
	19
	18
	7
	11
	15
	10
	21
	24
	1
	10
	22
	20
	15
	9
	21
	24
	6
	18
	5
	20
	15
	7
	18
	3
	13
	17
	21
	24
	1
	0
	4
	6
	16
	5
	12
	15
	6
	7
	18
	3
	13
	17
	21
	20
	15
	4
	2
	20
	15
	4
	18
	19
	13
	17
	12
	8
	13
	7
	0
	3
	11
	17
	21
	20
	15
	9
	21
	16
	15
	9
	5
	16
	6
	12
	17
	11
	19
	0
	4
	11
	15
	10
	21
	24
	1
	9
	2
	20
	15
	9
	22
	20
	6
	17
	22
	20
	15
	10
	5
	16
	1
	10
	22
	24
	6
	4
	0
	1
	20
	2
	23
	15
	5
	20
	2
	16
	15
	4
	2
	23
	6
	8
	14
	8
	11
	2
	10
	1
	15
	10
	21
	24
	1
	10
